problems/csplib-prob015/SchursLemma-models/noch/O2/lingeling/model_1_3-4-12-solution000001.solution
language Essence 1.3

letting boxes be partition({1, 5, 8}, {2, 6, 10, 11}, {3, 9}, {4, 7, 12})
